(set-logic AUFLIA)
(declare-fun P (Int Int Int Int) Bool)
(assert 
  (forall ((x Int))
    (exists ((y Int))
      (forall ((z Int))
        (exists ((w Int))
          (P x y z w)
        )
      )
    )
  )
)
(check-sat)